WARNING: for repeatability, setting FPU to use double precision
============================[ Problem Statistics ]=============================
|                                                                             |
|  Number of variables:         27899                                         |
|  Number of clauses:          549789                                         |
|  Parse time:                   0.13 s                                       |
|  Eliminated clauses:           0.05 Mb                                      |
|  Simplification time:          0.16 s                                       |
|                                                                             |
============================[ Search Statistics ]==============================
| Conflicts |          ORIGINAL         |          LEARNT          | Progress |
|           |    Vars  Clauses Literals |    Limit  Clauses Lit/Cl |          |
===============================================================================
|       100 |    2862    23825    73726 |     8735      100     17 | 73.644 % |
|       250 |    2862    23825    73726 |     9609      250     21 | 73.644 % |
|       475 |    2862    23825    73726 |    10570      475     27 | 73.644 % |
|       812 |    2862    23825    73726 |    11627      812     28 | 73.644 % |
|      1318 |    2862    23825    73726 |    12790     1318     30 | 73.644 % |
|      2077 |    2862    23825    73726 |    14069     2077     38 | 73.644 % |
|      3216 |    2862    23825    73726 |    15476     3216     38 | 73.644 % |
|      4924 |    2862    23825    73726 |    17023     4924     38 | 73.644 % |
|      7486 |    2862    23825    73726 |    18726     7486     43 | 73.644 % |
|     11330 |    2862    23825    73726 |    20598    11330     48 | 73.644 % |
|     17096 |    2862    23825    73726 |    22658    17096     49 | 73.644 % |
|     25745 |    2862    23825    73726 |    24924    25745     50 | 73.644 % |
|     38719 |    2862    23825    73726 |    27416    38719     55 | 73.644 % |
===============================================================================
restarts              : 127
conflicts             : 39809          (42983 /sec)
decisions             : 164914         (0.00 % random) (178062 /sec)
propagations          : 2491735        (2690385 /sec)
conflict literals     : 2295809        (5.60 % deleted)
Memory used           : 60.00 MB
CPU time              : 0.926163 s

SATISFIABLE
